150
[30,32,33,35,36,37,38,39,40,41,42,43,44,45,49,52,53,54,55,59,60,61,65,66,68,70,71,72,73,74,78,79,80,81,83,86,87,89,90,91,93,96,98,99,100,101,105,106,107,108,109,110,111,112,113,114,115,116,118,119,120]
[3,1,3,2,1,1,2,2,1,1,1,2,2,1,1,2,1,1,1,4,1,1,2,1,1,1,2,1,1,1,1,2,2,4,2,3,1,1,2,1,2,1,1,3,1,1,3,4,1,1,1,1,1,1,2,3,1,2,1,2,3]
